
Log started (V11.0.0) Sun Apr 13 13:36:05 2008

Tried aggregator 1 time.
Reduced MIP has 220 rows, 4001 columns, and 8020 nonzeros.
Presolve time =    0.03 sec.
Clique table members: 200.
MIP emphasis: balance optimality and feasibility.
MIP search method: dynamic search.
Parallel mode: none, using 1 thread.
Root relaxation solution time =    0.08 sec.

        Nodes                                         Cuts/
   Node  Left     Objective  IInf  Best Integer     Best Node    ItCnt     Gap

*     0+    0                        10665.0000       56.1063      489   99.47%
*     0+    0                           65.0000       56.1063      489   13.68%
      0     0       57.0000    34       65.0000      Fract: 7      496   12.31%
      0     0       57.0000    43       65.0000     Covers: 3      518   12.31%
      0     0       57.0000    37       65.0000       Cuts: 8      565   12.31%
*     0+    0                           64.0000       57.0000      565   10.94%
      0     0       57.0000    39       64.0000     Covers: 2      618   10.94%
*     0+    0                           63.0000       57.0000      618    9.52%
*     0+    0                           61.0000       57.0000      618    6.56%
*     0+    0                           60.0000       57.0000      618    5.00%

Repeating presolve.
Tried aggregator 1 time.
MIP Presolve eliminated 0 rows and 1721 columns.
Reduced MIP has 220 rows, 2280 columns, and 4578 nonzeros.
Tried aggregator 1 time.
Represolve time =    0.11 sec.
Clique table members: 493.
MIP emphasis: balance optimality and feasibility.
MIP search method: dynamic search.
Parallel mode: none, using 1 thread.
Root relaxation solution time =    0.05 sec.

        Nodes                                         Cuts/
   Node  Left     Objective  IInf  Best Integer     Best Node    ItCnt     Gap

      0     0       57.0000    37       60.0000       57.0000      380    5.00%
      0     2       57.0000    37       60.0000       57.0000      380    5.00%
    100    70       57.0000    38       60.0000       57.0000     3233    5.00%
    200   134       58.0000    47       60.0000       57.0000     5544    5.00%
    300   223       57.0000    51       60.0000       57.0000     8339    5.00%
    400   305       58.0000    48       60.0000       57.0000    11844    5.00%
    500   388       59.0000    34       60.0000       57.0000    15513    5.00%
    600   402       57.0000    34       60.0000       57.0000    20664    5.00%
*   674+  276                           59.0000       57.0000    22919    3.39%
    700   288       58.0000    34       59.0000       57.0000    23443    3.39%
    800   286       58.0000    67       59.0000       57.0000    29812    3.39%
    900   304       58.0000    43       59.0000       57.0000    33960    3.39%
   1000   344    infeasible             59.0000       57.0000    38467    3.39%
Elapsed time =  13.88 sec. (tree size =  1.65 MB, solutions = 7)
   1100   434       58.0000    59       59.0000       57.0000    42738    3.39%
   1200   511       58.0000    26       59.0000       57.0000    48182    3.39%
   1300   577       58.0000    38       59.0000       57.0000    57068    3.39%
   1400   647       58.0000    64       59.0000       57.0000    64515    3.39%
   1500   724    infeasible             59.0000       57.0000    72763    3.39%
*  1514+   47                           58.0000       57.0000    73540    1.72%
   1600    52       57.0000   115       58.0000       57.0000   104118    1.72%
   1700    80    infeasible             58.0000       57.0000   131877    1.72%
   1800   112       57.0000   120       58.0000       57.0000   156240    1.72%
   1900    94       57.0000   117       58.0000       57.0000   194096    1.72%
   2000    86    infeasible             58.0000       57.0000   233212    1.72%
Elapsed time =  63.06 sec. (tree size =  0.83 MB, solutions = 8)
   2100    57    infeasible             58.0000       57.0000   270144    1.72%
   2200     7    infeasible             58.0000       57.0000   310463    1.72%

Cover cuts applied:  671
Mixed integer rounding cuts applied:  8
Gomory fractional cuts applied:  4

Solution pool: 8 solutions saved.

MIP - Integer optimal solution:  Objective = 5.8000000000e+001
Solution time =   90.48 sec.  Iterations = 313864  Nodes = 2212


Incumbent solution
Variable Name           Solution Value
Cmax                         58.000000
X_1_20                        1.000000
X_2_1                         1.000000
X_3_3                         1.000000
X_4_15                        1.000000
X_5_12                        1.000000
X_6_11                        1.000000
X_7_4                         1.000000
X_8_7                         1.000000
X_9_2                         1.000000
X_10_5                        1.000000
X_11_3                        1.000000
X_12_14                       1.000000
X_13_14                       1.000000
X_14_12                       1.000000
X_15_12                       1.000000
X_16_15                       1.000000
X_17_9                        1.000000
X_18_14                       1.000000
X_19_1                        1.000000
X_20_4                        1.000000
X_21_20                       1.000000
X_22_20                       1.000000
X_23_2                        1.000000
X_24_14                       1.000000
X_25_9                        1.000000
X_26_7                        1.000000
X_27_20                       1.000000
X_28_17                       1.000000
X_29_7                        1.000000
X_30_6                        1.000000
X_31_2                        1.000000
X_32_6                        1.000000
X_33_3                        1.000000
X_34_19                       1.000000
X_35_19                       1.000000
X_36_17                       1.000000
X_37_14                       1.000000
X_38_12                       1.000000
X_39_11                       1.000000
X_40_13                       1.000000
X_41_10                       1.000000
X_42_16                       1.000000
X_43_8                        1.000000
X_44_1                        1.000000
X_45_6                        1.000000
X_46_10                       1.000000
X_47_2                        1.000000
X_48_9                        1.000000
X_49_17                       1.000000
X_50_10                       1.000000
X_51_11                       1.000000
X_52_5                        1.000000
X_53_8                        1.000000
X_54_2                        1.000000
X_55_5                        1.000000
X_56_5                        1.000000
X_57_3                        1.000000
X_58_2                        1.000000
X_59_2                        1.000000
X_60_5                        1.000000
X_61_13                       1.000000
X_62_5                        1.000000
X_63_17                       1.000000
X_64_10                       1.000000
X_65_2                        1.000000
X_66_5                        1.000000
X_67_2                        1.000000
X_68_20                       1.000000
X_69_17                       1.000000
X_70_7                        1.000000
X_71_3                        1.000000
X_72_13                       1.000000
X_73_1                        1.000000
X_74_6                        1.000000
X_75_11                       1.000000
X_76_4                        1.000000
X_77_15                       1.000000
X_78_16                       1.000000
X_79_3                        1.000000
X_80_9                        1.000000
X_81_12                       1.000000
X_82_13                       1.000000
X_83_15                       1.000000
X_84_5                        1.000000
X_85_20                       1.000000
X_86_2                        1.000000
X_87_10                       1.000000
X_88_18                       1.000000
X_89_10                       1.000000
X_90_9                        1.000000
X_91_1                        1.000000
X_92_18                       1.000000
X_93_11                       1.000000
X_94_6                        1.000000
X_95_5                        1.000000
X_96_14                       1.000000
X_97_7                        1.000000
X_98_15                       1.000000
X_99_5                        1.000000
X_100_8                       1.000000
X_101_13                      1.000000
X_102_6                       1.000000
X_103_1                       1.000000
X_104_2                       1.000000
X_105_1                       1.000000
X_106_20                      1.000000
X_107_15                      1.000000
X_108_2                       1.000000
X_109_15                      1.000000
X_110_18                      1.000000
X_111_3                       1.000000
X_112_13                      1.000000
X_113_17                      1.000000
X_114_18                      1.000000
X_115_16                      1.000000
X_116_12                      1.000000
X_117_5                       1.000000
X_118_8                       1.000000
X_119_10                      1.000000
X_120_4                       1.000000
X_121_16                      1.000000
X_122_7                       1.000000
X_123_19                      1.000000
X_124_16                      1.000000
X_125_4                       1.000000
X_126_8                       1.000000
X_127_3                       1.000000
X_128_18                      1.000000
X_129_14                      1.000000
X_130_19                      1.000000
X_131_19                      1.000000
X_132_4                       1.000000
X_133_5                       1.000000
X_134_14                      1.000000
X_135_7                       1.000000
X_136_18                      1.000000
X_137_18                      1.000000
X_138_11                      1.000000
X_139_6                       1.000000
X_140_12                      1.000000
X_141_7                       1.000000
X_142_12                      1.000000
X_143_18                      1.000000
X_144_2                       1.000000
X_145_16                      1.000000
X_146_10                      1.000000
X_147_5                       1.000000
X_148_12                      1.000000
X_149_4                       1.000000
X_150_9                       1.000000
X_151_4                       1.000000
X_152_3                       1.000000
X_153_11                      1.000000
X_154_12                      1.000000
X_155_6                       1.000000
X_156_6                       1.000000
X_157_4                       1.000000
X_158_10                      1.000000
X_159_19                      1.000000
X_160_6                       1.000000
X_161_16                      1.000000
X_162_2                       1.000000
X_163_1                       1.000000
X_164_17                      1.000000
X_165_17                      1.000000
X_166_3                       1.000000
X_167_16                      1.000000
X_168_19                      1.000000
X_169_9                       1.000000
X_170_1                       1.000000
X_171_3                       1.000000
X_172_4                       1.000000
X_173_18                      1.000000
X_174_10                      1.000000
X_175_12                      1.000000
X_176_11                      1.000000
X_177_15                      1.000000
X_178_6                       1.000000
X_179_2                       1.000000
X_180_15                      1.000000
X_181_18                      1.000000
X_182_20                      1.000000
X_183_5                       1.000000
X_184_18                      1.000000
X_185_8                       1.000000
X_186_19                      1.000000
X_187_17                      1.000000
X_188_1                       1.000000
X_189_9                       1.000000
X_190_20                      1.000000
X_191_10                      1.000000
X_192_7                       1.000000
X_193_2                       1.000000
X_194_14                      1.000000
X_195_17                      1.000000
X_196_10                      1.000000
X_197_19                      1.000000
X_198_11                      1.000000
X_199_11                      1.000000
X_200_13                      1.000000
All other variables in the range 1-4001 are 0.
